Created by my custom scripts
 1.00
  18.060000000  0.000000000  0.000000000
  0.000000000  18.060000000  0.000000000
  0.000000000  0.000000000  18.060000000
 Br Cs Pb
  81 27 27
Direct
  0.496357933  0.367985282  0.333333333 # Br, 0
  0.333333333  0.833333333  0.666666667 # Br, 1
  0.500000000  0.666666667  0.666666667 # Br, 2
  0.333333333  0.666666667  0.500000000 # Br, 3
  0.333333333  0.833333333  0.333333333 # Br, 4
  0.500000000  0.666666667  0.333333333 # Br, 5
  0.333333333  0.666666667  0.166666667 # Br, 6
  0.333333333  0.833333333  0.000000000 # Br, 7
  0.500000000  0.666666667  0.000000000 # Br, 8
  0.333333333  0.333333333  0.833333333 # Br, 9
  0.333333333  0.500000000  0.666666667 # Br, 10
  0.500000000  0.333333333  0.666666667 # Br, 11
  0.333333333  0.333333334  0.500000000 # Br, 12
  0.298681384  0.496357934  0.333333333 # Br, 13
  0.666666667  0.833333333  0.666666667 # Br, 14
  0.333333333  0.333333334  0.166666667 # Br, 15
  0.333333333  0.500000000  0.000000000 # Br, 16
  0.500000000  0.333333333  0.000000000 # Br, 17
  0.333333333  0.000000000  0.833333333 # Br, 18
  0.333333333  0.166666667  0.666666667 # Br, 19
  0.500000000  0.000000000  0.666666667 # Br, 20
  0.333333333  0.000000000  0.500000000 # Br, 21
  0.333333333  0.666666667  0.833333333 # Br, 22
  0.833333333  0.000000000  0.000000000 # Br, 23
  0.666666667  0.166666667  0.000000000 # Br, 24
  0.666666667  0.000000000  0.166666667 # Br, 25
  0.833333333  0.666666667  0.666666667 # Br, 26
  0.666666667  0.666666667  0.500000000 # Br, 27
  0.666666667  0.833333333  0.333333333 # Br, 28
  0.833333333  0.666666667  0.333333333 # Br, 29
  0.666666667  0.666666667  0.166666667 # Br, 30
  0.666666667  0.833333333  0.000000000 # Br, 31
  0.833333333  0.666666667  0.000000000 # Br, 32
  0.666666667  0.333333333  0.833333333 # Br, 33
  0.666666667  0.500000000  0.666666667 # Br, 34
  0.833333333  0.333333333  0.666666667 # Br, 35
  0.367985281  0.170308734  0.333333333 # Br, 36
  0.666666667  0.333333333  0.500000000 # Br, 37
  0.833333333  0.333333333  0.333333333 # Br, 38
  0.666666667  0.333333333  0.166666667 # Br, 39
  0.666666667  0.500000000  0.000000000 # Br, 40
  0.833333333  0.333333333  0.000000000 # Br, 41
  0.666666667  0.000000000  0.833333333 # Br, 42
  0.666666667  0.166666667  0.666666667 # Br, 43
  0.833333333  0.000000000  0.666666667 # Br, 44
  0.666666667  0.000000000  0.500000000 # Br, 45
  0.666666667  0.166666667  0.333333333 # Br, 46
  0.833333333  0.000000000  0.333333333 # Br, 47
  0.666666667  0.500000000  0.333333333 # Br, 48
  0.500000000  0.000000000  0.333333333 # Br, 49
  0.666666667  0.666666667  0.833333333 # Br, 50
  0.166666667  0.666666667  0.333333333 # Br, 51
  0.000000000  0.500000000  0.333333333 # Br, 52
  0.166666667  0.000000000  0.666666667 # Br, 53
  0.000000000  0.166666667  0.666666667 # Br, 54
  0.000000000  0.000000000  0.833333333 # Br, 55
  0.000000000  0.666666667  0.166666667 # Br, 56
  0.000000000  0.833333333  0.000000000 # Br, 57
  0.000000000  0.833333333  0.333333333 # Br, 58
  0.166666667  0.666666667  0.000000000 # Br, 59
  0.000000000  0.500000000  0.000000000 # Br, 60
  0.000000000  0.333333333  0.833333333 # Br, 61
  0.000000000  0.333333333  0.166666667 # Br, 62
  0.000000000  0.500000000  0.666666667 # Br, 63
  0.166666667  0.333333333  0.666666667 # Br, 64
  0.170308732  0.298681385  0.333333333 # Br, 65
  0.166666667  0.333333333  0.000000000 # Br, 66
  0.000000000  0.666666667  0.500000000 # Br, 67
  0.000000000  0.333333333  0.500000000 # Br, 68
  0.000000000  0.166666667  0.333333333 # Br, 69
  0.333333333  0.000000000  0.166666667 # Br, 70
  0.166666667  0.000000000  0.333333333 # Br, 71
  0.166666667  0.666666667  0.666666667 # Br, 72
  0.333333333  0.166666667  0.000000000 # Br, 73
  0.000000000  0.833333333  0.666666667 # Br, 74
  0.500000000  0.000000000  0.000000000 # Br, 75
  0.000000000  0.666666667  0.833333333 # Br, 76
  0.000000000  0.000000000  0.500000000 # Br, 77
  0.000000000  0.000000000  0.166666667 # Br, 78
  0.000000000  0.166666667  0.000000000 # Br, 79
  0.166666667  0.000000000  0.000000000 # Br, 80
  0.833333333  0.166666667  0.500000000 # Cs, 81
  0.166666667  0.500000000  0.500000000 # Cs, 82
  0.833333333  0.166666667  0.833333333 # Cs, 83
  0.833333333  0.833333333  0.833333333 # Cs, 84
  0.833333333  0.500000000  0.166666667 # Cs, 85
  0.833333333  0.833333333  0.500000000 # Cs, 86
  0.166666667  0.166666667  0.500000000 # Cs, 87
  0.833333333  0.500000000  0.500000000 # Cs, 88
  0.833333333  0.833333333  0.166666667 # Cs, 89
  0.833333333  0.500000000  0.833333333 # Cs, 90
  0.166666667  0.166666667  0.833333333 # Cs, 91
  0.166666667  0.500000000  0.166666667 # Cs, 92
  0.166666667  0.500000000  0.833333333 # Cs, 93
  0.166666667  0.166666667  0.166666667 # Cs, 94
  0.500000000  0.500000000  0.166666667 # Cs, 95
  0.500000000  0.500000000  0.500000000 # Cs, 96
  0.500000000  0.166666667  0.500000000 # Cs, 97
  0.166666667  0.833333333  0.500000000 # Cs, 98
  0.500000000  0.833333333  0.166666667 # Cs, 99
  0.500000000  0.833333333  0.500000000 # Cs, 100
  0.500000000  0.500000000  0.833333333 # Cs, 101
  0.500000000  0.166666667  0.166666667 # Cs, 102
  0.166666667  0.833333333  0.833333333 # Cs, 103
  0.500000000  0.833333333  0.833333333 # Cs, 104
  0.500000000  0.166666667  0.833333333 # Cs, 105
  0.833333333  0.166666667  0.166666667 # Cs, 106
  0.166666667  0.833333333  0.166666667 # Cs, 107
  0.666666667  0.666666667  0.333333333 # Pb, 108
  0.333333333  0.000000000  0.000000000 # Pb, 109
  0.333333333  0.333333333  0.000000000 # Pb, 110
  0.333333333  0.000000000  0.666666667 # Pb, 111
  0.000000000  0.000000000  0.333333333 # Pb, 112
  0.000000000  0.666666667  0.666666667 # Pb, 113
  0.666666667  0.666666667  0.666666667 # Pb, 114
  0.666666667  0.666666667  0.000000000 # Pb, 115
  0.000000000  0.000000000  0.000000000 # Pb, 116
  0.333333333  0.333333334  0.333333333 # Pb, 117
  0.666666667  0.000000000  0.000000000 # Pb, 118
  0.000000000  0.000000000  0.666666667 # Pb, 119
  0.333333333  0.333333333  0.666666667 # Pb, 120
  0.000000000  0.666666667  0.333333333 # Pb, 121
  0.666666667  0.333333333  0.333333333 # Pb, 122
  0.333333333  0.666666667  0.000000000 # Pb, 123
  0.000000000  0.333333333  0.000000000 # Pb, 124
  0.666666667  0.333333333  0.000000000 # Pb, 125
  0.333333333  0.666666667  0.333333333 # Pb, 126
  0.000000000  0.666666667  0.000000000 # Pb, 127
  0.666666667  0.000000000  0.666666667 # Pb, 128
  0.333333333  0.666666667  0.666666667 # Pb, 129
  0.000000000  0.333333333  0.666666667 # Pb, 130
  0.000000000  0.333333333  0.333333333 # Pb, 131
  0.666666667  0.000000000  0.333333333 # Pb, 132
  0.666666667  0.333333333  0.666666667 # Pb, 133
  0.333333333  0.000000000  0.333333333 # Pb, 134
