CSBR
 6.3
  1.0 0.0 0.0
  0.0 1.0 0.0
  0.0 0.0 1.0
 Cs Pb Br
  1 1 3
 Direct
0.5 0.5 0.5
0.0 0.0 0.0
0.5 0.0 0.0
0.0 0.5 0.0
0.0 0.0 0.5
