generated by phonopy
   1.0
     2.8524693499961438    0.0000000000000000    0.0000000000000000
     0.0000000000000000    2.8524693499961438    0.0000000000000000
     0.0000000000000000    0.0000000000000000    2.8524693499961438
Cr
   2
Direct
  0.0000000000000000  0.0000000000000000  0.0000000000000000
  0.5000000000000000  0.5000000000000000  0.5000000000000000
