ANGLES(degrees)  -12.00 12.00
 6.002000
 1.41421  0.00000  0.00000
 0.00000  1.41421  0.00000
 0.00000  0.00000  2.00000
Cs Pb Br
 4 4 12
Direct
 0.25000000 0.85395585 0.25000000
 0.75000000 0.35395585 0.25000000
 0.35395585 0.75000000 0.75000000
 0.85395585 0.25000000 0.75000000
 0.29651482 0.29651482 0.00000000
 0.78558862 0.78558862 0.00000000
 0.29651482 0.29651482 0.50000000
 0.78558862 0.78558862 0.50000000
 0.00000000 0.10395585 0.00000000
 0.48907380 0.00000000 0.00000000
 0.10395585 0.59302965 0.00000000
 0.29651482 0.29651482 0.25000000
 0.59302965 0.48907380 0.00000000
 0.78558862 0.78558862 0.25000000
 0.10395585 0.00000000 0.50000000
 0.59302965 0.10395585 0.50000000
 0.00000000 0.48907380 0.50000000
 0.29651482 0.29651482 0.75000000
 0.48907380 0.59302965 0.50000000
 0.78558862 0.78558862 0.75000000
