ANGLES(degrees)  4.00 12.00 16.00
 6.002000
 1.41421  0.00000  0.00000
 0.00000  1.41421  0.00000
 0.00000  0.00000  3.00000
Cs Pb Br
 6 6 18
Direct
 0.28487824 0.75000000 0.16666667
 0.78487824 0.25000000 0.16666667
 0.35395585 0.75000000 0.50000000
 0.85395585 0.25000000 0.50000000
 0.38781868 0.75000000 0.83333333
 0.88781868 0.25000000 0.83333333
 0.26683013 0.26683013 0.00000000
 0.76561216 0.76561216 0.00000000
 0.29651482 0.29651482 0.33333333
 0.78558862 0.78558862 0.33333333
 0.30922476 0.30922476 0.66666667
 0.78985561 0.78985561 0.66666667
 0.03487824 0.00000000 0.00000000
 0.53366026 0.03487824 0.00000000
 0.00000000 0.49878203 0.00000000
 0.26683013 0.26683013 0.16666667
 0.49878203 0.53366026 0.00000000
 0.76561216 0.76561216 0.16666667
 0.10395585 0.00000000 0.33333333
 0.59302965 0.10395585 0.33333333
 0.00000000 0.48907380 0.33333333
 0.29651482 0.29651482 0.50000000
 0.48907380 0.59302965 0.33333333
 0.78558862 0.78558862 0.50000000
 0.13781868 0.00000000 0.66666667
 0.61844953 0.13781868 0.66666667
 0.00000000 0.48063085 0.66666667
 0.30922476 0.30922476 0.83333333
 0.48063085 0.61844953 0.66666667
 0.78985561 0.78985561 0.83333333
