ANGLES(degrees)  -12.00 12.00 -10.00
 6.002000
 1.41421  0.00000  0.00000
 0.00000  1.41421  0.00000
 0.00000  0.00000  3.00000
Cs Pb Br
 6 6 18
Direct
 0.25000000 0.85395585 0.16666667
 0.75000000 0.35395585 0.16666667
 0.35395585 0.75000000 0.50000000
 0.85395585 0.25000000 0.50000000
 0.25000000 0.83682409 0.83333333
 0.75000000 0.33682409 0.83333333
 0.29651482 0.29651482 0.00000000
 0.78558862 0.78558862 0.00000000
 0.29651482 0.29651482 0.33333333
 0.78558862 0.78558862 0.33333333
 0.28961398 0.28961398 0.66666667
 0.78201786 0.78201786 0.66666667
 0.00000000 0.10395585 0.00000000
 0.48907380 0.00000000 0.00000000
 0.10395585 0.59302965 0.00000000
 0.29651482 0.29651482 0.16666667
 0.59302965 0.48907380 0.00000000
 0.78558862 0.78558862 0.16666667
 0.10395585 0.00000000 0.33333333
 0.59302965 0.10395585 0.33333333
 0.00000000 0.48907380 0.33333333
 0.29651482 0.29651482 0.50000000
 0.48907380 0.59302965 0.33333333
 0.78558862 0.78558862 0.50000000
 0.00000000 0.08682409 0.66666667
 0.49240388 0.00000000 0.66666667
 0.08682409 0.57922797 0.66666667
 0.28961398 0.28961398 0.83333333
 0.57922797 0.49240388 0.66666667
 0.78201786 0.78201786 0.83333333
