ANGLES(degrees)  -8.00 -8.00 10.00
 6.002000
 1.41421  0.00000  0.00000
 0.00000  1.41421  0.00000
 0.00000  0.00000  3.00000
Cs Pb Br
 6 6 18
Direct
 0.25000000 0.81958655 0.16666667
 0.75000000 0.31958655 0.16666667
 0.25000000 0.81958655 0.50000000
 0.75000000 0.31958655 0.50000000
 0.33682409 0.75000000 0.83333333
 0.83682409 0.25000000 0.83333333
 0.28236029 0.28236029 0.00000000
 0.77749433 0.77749433 0.00000000
 0.28236029 0.28236029 0.33333333
 0.77749433 0.77749433 0.33333333
 0.28961398 0.28961398 0.66666667
 0.78201786 0.78201786 0.66666667
 0.00000000 0.06958655 0.00000000
 0.49513403 0.00000000 0.00000000
 0.06958655 0.56472058 0.00000000
 0.28236029 0.28236029 0.16666667
 0.56472058 0.49513403 0.00000000
 0.77749433 0.77749433 0.16666667
 0.00000000 0.06958655 0.33333333
 0.49513403 0.00000000 0.33333333
 0.06958655 0.56472058 0.33333333
 0.28236029 0.28236029 0.50000000
 0.56472058 0.49513403 0.33333333
 0.77749433 0.77749433 0.50000000
 0.08682409 0.00000000 0.66666667
 0.57922797 0.08682409 0.66666667
 0.00000000 0.49240388 0.66666667
 0.28961398 0.28961398 0.83333333
 0.49240388 0.57922797 0.66666667
 0.78201786 0.78201786 0.83333333
